
Log started (V11.0.0) Wed May 14 17:26:30 2008

Tried aggregator 1 time.
Reduced MIP has 150 rows, 5001 columns, and 10050 nonzeros.
Presolve time =    0.05 sec.
Clique table members: 100.
MIP emphasis: balance optimality and feasibility.
MIP search method: dynamic search.
Parallel mode: none, using 1 thread.
Root relaxation solution time =    0.16 sec.

        Nodes                                         Cuts/
   Node  Left     Objective  IInf  Best Integer     Best Node    ItCnt     Gap

*     0+    0                        10533.0000       59.5767      517   99.43%
*     0+    0                          110.0000       59.5767      517   45.84%
      0     0       60.1712    86      110.0000      Fract: 4      524   45.30%
*     0+    0                          100.0000       60.1712      524   39.83%
      0     0       67.0426    88      100.0000      Cuts: 41      865   32.96%
*     0+    0                           99.0000       67.0426      865   32.28%
      0     0       67.5103    90       99.0000      Cuts: 23      913   31.81%
*     0+    0                           96.0000       67.5103      913   29.68%
      0     0       67.7633    85       96.0000      Cuts: 10      972   29.41%
*     0+    0                           88.0000       67.7633      972   23.00%
      0     0       68.3714    82       88.0000       Cuts: 5     1031   22.31%
*     0+    0                           85.0000       68.3714     1031   19.56%
      0     0       68.8623    78       85.0000       Cuts: 5     1067   18.99%
*     0+    0                           84.0000       68.8623     1067   18.02%
      0     0       69.2104    72       84.0000       Cuts: 6     1102   17.61%
*     0+    0                           82.0000       69.2104     1102   15.60%
      0     0       69.6071    67       82.0000       Cuts: 4     1110   15.11%
*     0+    0                           81.0000       69.6071     1110   14.07%
      0     0       69.9050    67       81.0000    MIRcuts: 2     1131   13.70%
*     0+    0                           80.0000       69.9050     1131   12.62%
      0     0       69.9050    65       80.0000    MIRcuts: 3     1160   12.62%
      0     0       71.5073    67       80.0000       Cuts: 9     1230   10.62%
      0     0       71.5252    51       80.0000       Cuts: 5     1252   10.59%
      0     0       72.0200    60       80.0000    MIRcuts: 3     1297    9.98%
      0     0       72.1594    63       80.0000       Cuts: 5     1318    9.80%
      0     0       72.1594    62       80.0000       Cuts: 8     1336    9.80%
*     0+    0                           79.0000       72.1594     1336    8.66%
*     0+    0                           78.0000       72.1594     1336    7.49%

Repeating presolve.
Tried aggregator 1 time.
MIP Presolve eliminated 16 rows and 1706 columns.
MIP Presolve modified 1374 coefficients.
Reduced MIP has 134 rows, 3295 columns, and 6622 nonzeros.
Tried aggregator 1 time.
Represolve time =    0.17 sec.
Clique table members: 403.
MIP emphasis: balance optimality and feasibility.
MIP search method: dynamic search.
Parallel mode: none, using 1 thread.
Root relaxation solution time =    0.08 sec.

        Nodes                                         Cuts/
   Node  Left     Objective  IInf  Best Integer     Best Node    ItCnt     Gap

      0     0       73.7359    72       78.0000       73.7359      626    5.47%
      0     2       74.0000    63       78.0000       73.7359      626    5.47%
    100    96       75.0000    27       78.0000       74.0000     2201    5.13%
    200   175       77.0000    23       78.0000       74.0000     4039    5.13%
    300    81        cutoff             78.0000       75.0000    11600    3.85%

Clique cuts applied:  5
Cover cuts applied:  6
Mixed integer rounding cuts applied:  27
Zero-half cuts applied:  3

Solution pool: 13 solutions saved.

MIP - Integer optimal solution:  Objective = 7.8000000000e+001
Solution time =    5.06 sec.  Iterations = 13779  Nodes = 382


Incumbent solution
Variable Name           Solution Value
Cmax                         78.000000
X_1_8                         1.000000
X_2_13                        1.000000
X_3_16                        1.000000
X_4_8                         1.000000
X_5_13                        1.000000
X_6_42                        1.000000
X_7_45                        1.000000
X_8_17                        1.000000
X_9_16                        1.000000
X_10_12                       1.000000
X_11_16                       1.000000
X_12_8                        1.000000
X_13_38                       1.000000
X_14_8                        1.000000
X_15_16                       1.000000
X_16_15                       1.000000
X_17_22                       1.000000
X_18_15                       1.000000
X_19_46                       1.000000
X_20_26                       1.000000
X_21_10                       1.000000
X_22_15                       1.000000
X_23_16                       1.000000
X_24_16                       1.000000
X_25_21                       1.000000
X_26_16                       1.000000
X_27_33                       1.000000
X_28_8                        1.000000
X_29_46                       1.000000
X_30_23                       1.000000
X_31_23                       1.000000
X_32_21                       1.000000
X_33_8                        1.000000
X_34_12                       1.000000
X_35_48                       1.000000
X_36_47                       1.000000
X_37_1                        1.000000
X_38_16                       1.000000
X_39_35                       1.000000
X_40_16                       1.000000
X_41_16                       1.000000
X_42_16                       1.000000
X_43_49                       1.000000
X_44_25                       1.000000
X_45_29                       1.000000
X_46_25                       1.000000
X_47_16                       1.000000
X_48_31                       1.000000
X_49_26                       1.000000
X_50_8                        1.000000
X_51_8                        1.000000
X_52_37                       1.000000
X_53_25                       1.000000
X_54_26                       1.000000
X_55_8                        1.000000
X_56_12                       1.000000
X_57_16                       1.000000
X_58_8                        1.000000
X_59_29                       1.000000
X_60_10                       1.000000
X_61_13                       1.000000
X_62_20                       1.000000
X_63_42                       1.000000
X_64_40                       1.000000
X_65_16                       1.000000
X_66_16                       1.000000
X_67_44                       1.000000
X_68_22                       1.000000
X_69_5                        1.000000
X_70_34                       1.000000
X_71_42                       1.000000
X_72_44                       1.000000
X_73_28                       1.000000
X_74_36                       1.000000
X_75_20                       1.000000
X_76_26                       1.000000
X_77_8                        1.000000
X_78_8                        1.000000
X_79_14                       1.000000
X_80_43                       1.000000
X_81_8                        1.000000
X_82_16                       1.000000
X_83_42                       1.000000
X_84_8                        1.000000
X_85_16                       1.000000
X_86_48                       1.000000
X_87_33                       1.000000
X_88_13                       1.000000
X_89_15                       1.000000
X_90_23                       1.000000
X_91_35                       1.000000
X_92_8                        1.000000
X_93_20                       1.000000
X_94_17                       1.000000
X_95_27                       1.000000
X_96_35                       1.000000
X_97_22                       1.000000
X_98_42                       1.000000
X_99_16                       1.000000
X_100_45                      1.000000
All other variables in the range 1-5001 are 0.
